10
2147483647 47 30 64 38 83 7 8 27 2 
47 2147483647 1 95 89 72 56 77 60 69 
30 1 2147483647 60 29 78 64 12 50 24 
64 95 60 2147483647 59 21 5 83 43 7 
38 89 29 59 2147483647 71 38 2 55 86 
83 72 78 21 71 2147483647 69 29 24 59 
7 56 64 5 38 69 2147483647 38 20 57 
8 77 12 83 2 29 38 2147483647 8 77 
27 60 50 43 55 24 20 8 2147483647 22 
2 69 24 7 86 59 57 77 22 2147483647 
